Results/Experiment 2 Results/New Benchmark/output_p1_0.00_p2_0.00_n_20_10.lp
clingo version 5.4.0
Reading from tempSRTISolver.lp ...
Solving...
Answer: 1
matched(6,2) matched(1,3) matched(8,4) matched(7,5) matched(2,6) matched(5,7) matched(4,8) matched(12,10) matched(9,11) matched(10,12) matched(11,9) matched(19,14) matched(18,15) matched(13,16) matched(20,17) matched(15,18) matched(14,19) matched(17,20) matched(16,13) matched(3,1)
Optimization: 88
Answer: 2
matched(8,2) matched(6,3) matched(1,4) matched(7,5) matched(3,6) matched(5,7) matched(2,8) matched(12,10) matched(9,11) matched(10,12) matched(11,9) matched(19,14) matched(18,15) matched(13,16) matched(20,17) matched(15,18) matched(14,19) matched(17,20) matched(16,13) matched(4,1)
Optimization: 87
Answer: 3
matched(7,2) matched(6,3) matched(1,4) matched(8,5) matched(3,6) matched(2,7) matched(5,8) matched(12,10) matched(9,11) matched(10,12) matched(11,9) matched(19,14) matched(18,15) matched(13,16) matched(20,17) matched(15,18) matched(14,19) matched(17,20) matched(16,13) matched(4,1)
Optimization: 86
OPTIMUM FOUND

Models       : 3
  Optimum    : yes
Optimization : 86
Calls        : 1
Time         : 0.115s (Solving: 0.01s 1st Model: 0.00s Unsat: 0.01s)
CPU Time     : 0.114s
